p cnf 132 648
1 -49 0
1 -50 0
49 -49 0
50 -50 0
17 -55 0
17 -56 0
55 -55 0
56 -56 0
33 -61 0
33 -62 0
61 -61 0
62 -62 0
2 -67 -49 0
-2 67 -49 0
2 67 -50 0
-2 -67 -50 0
18 -67 -55 0
-18 67 -55 0
18 67 -56 0
-18 -67 -56 0
34 -67 -61 0
-34 67 -61 0
34 67 -62 0
-34 -67 -62 0
3 -49 0
3 -50 0
49 -49 0
50 -50 0
19 -55 0
19 -56 0
55 -55 0
56 -56 0
35 -61 0
35 -62 0
61 -61 0
62 -62 0
4 -68 -49 0
-4 68 -49 0
4 68 -50 0
-4 -68 -50 0
20 -68 -55 0
-20 68 -55 0
20 68 -56 0
-20 -68 -56 0
36 -68 -61 0
-36 68 -61 0
36 68 -62 0
-36 -68 -62 0
5 -49 0
5 -50 0
49 -49 0
50 -50 0
21 -55 0
21 -56 0
55 -55 0
56 -56 0
37 -61 0
37 -62 0
61 -61 0
62 -62 0
6 -49 0
6 -50 0
49 -49 0
50 -50 0
22 -55 0
22 -56 0
55 -55 0
56 -56 0
38 -61 0
38 -62 0
61 -61 0
62 -62 0
7 -69 -49 0
-7 69 -49 0
7 69 -50 0
-7 -69 -50 0
23 -69 -55 0
-23 69 -55 0
23 69 -56 0
-23 -69 -56 0
39 -69 -61 0
-39 69 -61 0
39 69 -62 0
-39 -69 -62 0
8 -49 0
8 -50 0
49 -49 0
50 -50 0
24 -55 0
24 -56 0
55 -55 0
56 -56 0
40 -61 0
40 -62 0
61 -61 0
62 -62 0
9 -49 0
9 -50 0
49 -49 0
50 -50 0
25 -55 0
25 -56 0
55 -55 0
56 -56 0
41 -61 0
41 -62 0
61 -61 0
62 -62 0
10 -70 -49 0
-10 70 -49 0
10 70 -50 0
-10 -70 -50 0
26 -70 -55 0
-26 70 -55 0
26 70 -56 0
-26 -70 -56 0
42 -70 -61 0
-42 70 -61 0
42 70 -62 0
-42 -70 -62 0
11 -49 0
11 -50 0
49 -49 0
50 -50 0
27 -55 0
27 -56 0
55 -55 0
56 -56 0
43 -61 0
43 -62 0
61 -61 0
62 -62 0
-12 -49 0
-12 -50 0
49 -49 0
50 -50 0
-28 -55 0
-28 -56 0
55 -55 0
56 -56 0
-44 -61 0
-44 -62 0
61 -61 0
62 -62 0
13 -71 -49 0
-13 71 -49 0
13 71 -50 0
-13 -71 -50 0
29 -71 -55 0
-29 71 -55 0
29 71 -56 0
-29 -71 -56 0
45 -71 -61 0
-45 71 -61 0
45 71 -62 0
-45 -71 -62 0
14 -72 -49 0
-14 72 -49 0
14 72 -50 0
-14 -72 -50 0
30 -72 -55 0
-30 72 -55 0
30 72 -56 0
-30 -72 -56 0
46 -72 -61 0
-46 72 -61 0
46 72 -62 0
-46 -72 -62 0
15 -49 0
15 -50 0
49 -49 0
50 -50 0
31 -55 0
31 -56 0
55 -55 0
56 -56 0
47 -61 0
47 -62 0
61 -61 0
62 -62 0
16 -49 0
16 -50 0
49 -49 0
50 -50 0
32 -55 0
32 -56 0
55 -55 0
56 -56 0
48 -61 0
48 -62 0
61 -61 0
62 -62 0
-115 49 0
115 -49 0
-116 50 0
115 -50 0
-115 -49 0
-116 -50 0
-121 49 115 0
121 -49 0
121 -115 0
-122 50 116 0
122 -50 0
122 -116 0
-121 -55 0
-122 -56 0
-127 55 121 0
127 -55 0
127 -121 0
-128 56 122 0
128 -56 0
128 -122 0
-127 -61 0
-128 -62 0
127 0
128 0
1 -51 0
1 -52 0
51 -51 0
52 -52 0
17 -57 0
17 -58 0
57 -57 0
58 -58 0
33 -63 0
33 -64 0
63 -63 0
64 -64 0
2 -73 -51 0
-2 73 -51 0
2 73 -52 0
-2 -73 -52 0
18 -73 -57 0
-18 73 -57 0
18 73 -58 0
-18 -73 -58 0
34 -73 -63 0
-34 73 -63 0
34 73 -64 0
-34 -73 -64 0
3 -51 0
3 -52 0
51 -51 0
52 -52 0
19 -57 0
19 -58 0
57 -57 0
58 -58 0
35 -63 0
35 -64 0
63 -63 0
64 -64 0
4 -74 -51 0
-4 74 -51 0
4 74 -52 0
-4 -74 -52 0
20 -74 -57 0
-20 74 -57 0
20 74 -58 0
-20 -74 -58 0
36 -74 -63 0
-36 74 -63 0
36 74 -64 0
-36 -74 -64 0
5 -51 0
5 -52 0
51 -51 0
52 -52 0
21 -57 0
21 -58 0
57 -57 0
58 -58 0
37 -63 0
37 -64 0
63 -63 0
64 -64 0
6 -51 0
6 -52 0
51 -51 0
52 -52 0
22 -57 0
22 -58 0
57 -57 0
58 -58 0
38 -63 0
38 -64 0
63 -63 0
64 -64 0
7 -75 -51 0
-7 75 -51 0
7 75 -52 0
-7 -75 -52 0
23 -75 -57 0
-23 75 -57 0
23 75 -58 0
-23 -75 -58 0
39 -75 -63 0
-39 75 -63 0
39 75 -64 0
-39 -75 -64 0
8 -51 0
8 -52 0
51 -51 0
52 -52 0
24 -57 0
24 -58 0
57 -57 0
58 -58 0
40 -63 0
40 -64 0
63 -63 0
64 -64 0
9 -51 0
9 -52 0
51 -51 0
52 -52 0
25 -57 0
25 -58 0
57 -57 0
58 -58 0
41 -63 0
41 -64 0
63 -63 0
64 -64 0
10 -76 -51 0
-10 76 -51 0
10 76 -52 0
-10 -76 -52 0
26 -76 -57 0
-26 76 -57 0
26 76 -58 0
-26 -76 -58 0
42 -76 -63 0
-42 76 -63 0
42 76 -64 0
-42 -76 -64 0
11 -51 0
11 -52 0
51 -51 0
52 -52 0
27 -57 0
27 -58 0
57 -57 0
58 -58 0
43 -63 0
43 -64 0
63 -63 0
64 -64 0
12 -77 -51 0
-12 77 -51 0
12 77 -52 0
-12 -77 -52 0
28 -77 -57 0
-28 77 -57 0
28 77 -58 0
-28 -77 -58 0
44 -77 -63 0
-44 77 -63 0
44 77 -64 0
-44 -77 -64 0
13 -78 -51 0
-13 78 -51 0
13 78 -52 0
-13 -78 -52 0
29 -78 -57 0
-29 78 -57 0
29 78 -58 0
-29 -78 -58 0
45 -78 -63 0
-45 78 -63 0
45 78 -64 0
-45 -78 -64 0
14 -51 0
14 -52 0
51 -51 0
52 -52 0
30 -57 0
30 -58 0
57 -57 0
58 -58 0
46 -63 0
46 -64 0
63 -63 0
64 -64 0
15 -51 0
15 -52 0
51 -51 0
52 -52 0
31 -57 0
31 -58 0
57 -57 0
58 -58 0
47 -63 0
47 -64 0
63 -63 0
64 -64 0
16 -51 0
16 -52 0
51 -51 0
52 -52 0
32 -57 0
32 -58 0
57 -57 0
58 -58 0
48 -63 0
48 -64 0
63 -63 0
64 -64 0
-117 51 0
117 -51 0
-118 52 0
117 -52 0
-117 -51 0
-118 -52 0
-123 51 117 0
123 -51 0
123 -117 0
-124 52 118 0
124 -52 0
124 -118 0
-123 -57 0
-124 -58 0
-129 57 123 0
129 -57 0
129 -123 0
-130 58 124 0
130 -58 0
130 -124 0
-129 -63 0
-130 -64 0
129 0
130 0
1 -53 0
1 -54 0
53 -53 0
54 -54 0
17 -59 0
17 -60 0
59 -59 0
60 -60 0
33 -65 0
33 -66 0
65 -65 0
66 -66 0
2 -79 -53 0
-2 79 -53 0
2 79 -54 0
-2 -79 -54 0
18 -79 -59 0
-18 79 -59 0
18 79 -60 0
-18 -79 -60 0
34 -79 -65 0
-34 79 -65 0
34 79 -66 0
-34 -79 -66 0
3 -80 -53 0
-3 80 -53 0
3 80 -54 0
-3 -80 -54 0
19 -80 -59 0
-19 80 -59 0
19 80 -60 0
-19 -80 -60 0
35 -80 -65 0
-35 80 -65 0
35 80 -66 0
-35 -80 -66 0
4 -81 -53 0
-4 81 -53 0
4 81 -54 0
-4 -81 -54 0
20 -81 -59 0
-20 81 -59 0
20 81 -60 0
-20 -81 -60 0
36 -81 -65 0
-36 81 -65 0
36 81 -66 0
-36 -81 -66 0
5 -53 0
5 -54 0
53 -53 0
54 -54 0
21 -59 0
21 -60 0
59 -59 0
60 -60 0
37 -65 0
37 -66 0
65 -65 0
66 -66 0
6 -53 0
6 -54 0
53 -53 0
54 -54 0
22 -59 0
22 -60 0
59 -59 0
60 -60 0
38 -65 0
38 -66 0
65 -65 0
66 -66 0
7 -53 0
7 -54 0
53 -53 0
54 -54 0
23 -59 0
23 -60 0
59 -59 0
60 -60 0
39 -65 0
39 -66 0
65 -65 0
66 -66 0
8 -53 0
8 -54 0
53 -53 0
54 -54 0
24 -59 0
24 -60 0
59 -59 0
60 -60 0
40 -65 0
40 -66 0
65 -65 0
66 -66 0
9 -82 -53 0
-9 82 -53 0
9 82 -54 0
-9 -82 -54 0
25 -82 -59 0
-25 82 -59 0
25 82 -60 0
-25 -82 -60 0
41 -82 -65 0
-41 82 -65 0
41 82 -66 0
-41 -82 -66 0
10 -83 -53 0
-10 83 -53 0
10 83 -54 0
-10 -83 -54 0
26 -83 -59 0
-26 83 -59 0
26 83 -60 0
-26 -83 -60 0
42 -83 -65 0
-42 83 -65 0
42 83 -66 0
-42 -83 -66 0
11 -53 0
11 -54 0
53 -53 0
54 -54 0
27 -59 0
27 -60 0
59 -59 0
60 -60 0
43 -65 0
43 -66 0
65 -65 0
66 -66 0
12 -84 -53 0
-12 84 -53 0
12 84 -54 0
-12 -84 -54 0
28 -84 -59 0
-28 84 -59 0
28 84 -60 0
-28 -84 -60 0
44 -84 -65 0
-44 84 -65 0
44 84 -66 0
-44 -84 -66 0
13 -85 -53 0
-13 85 -53 0
13 85 -54 0
-13 -85 -54 0
29 -85 -59 0
-29 85 -59 0
29 85 -60 0
-29 -85 -60 0
45 -85 -65 0
-45 85 -65 0
45 85 -66 0
-45 -85 -66 0
14 -86 -53 0
-14 86 -53 0
14 86 -54 0
-14 -86 -54 0
30 -86 -59 0
-30 86 -59 0
30 86 -60 0
-30 -86 -60 0
46 -86 -65 0
-46 86 -65 0
46 86 -66 0
-46 -86 -66 0
15 -53 0
15 -54 0
53 -53 0
54 -54 0
31 -59 0
31 -60 0
59 -59 0
60 -60 0
47 -65 0
47 -66 0
65 -65 0
66 -66 0
16 -87 -53 0
-16 87 -53 0
16 87 -54 0
-16 -87 -54 0
32 -87 -59 0
-32 87 -59 0
32 87 -60 0
-32 -87 -60 0
48 -87 -65 0
-48 87 -65 0
48 87 -66 0
-48 -87 -66 0
-119 53 0
119 -53 0
-120 54 0
119 -54 0
-119 -53 0
-120 -54 0
-125 53 119 0
125 -53 0
125 -119 0
-126 54 120 0
126 -54 0
126 -120 0
-125 -59 0
-126 -60 0
-131 59 125 0
131 -59 0
131 -125 0
-132 60 126 0
132 -60 0
132 -126 0
-131 -65 0
-132 -66 0
131 0
132 0
